
Gurobi 11.0.0 (win64) logging started Thu May 16 08:59:16 2024

Set parameter LogFile to value "./Results/StripPacking-SequencePairRuns/Logs/RUsp-010-StripPacking-10.log"
Set parameter TimeLimit to value 10800
Set parameter Cuts to value 0
Set parameter Presolve to value 1
Set parameter Heuristics to value 0
Set parameter LPWarmStart to value 2
Gurobi Optimizer version 11.0.0 build v11.0.0rc2 (win64 - Windows 10.0 (19045.2))

CPU model: Intel(R) Core(TM) i9-10980XE CPU @ 3.00GHz, instruction set [SSE2|AVX|AVX2|AVX512]
Thread count: 18 physical cores, 36 logical processors, using up to 18 threads

Optimize a model with 3565 rows, 201 columns and 10460 nonzeros
Model fingerprint: 0x2e5e0e9b
Variable types: 21 continuous, 180 integer (180 binary)
Coefficient statistics:
  Matrix range     [1e+00, 1e+04]
  Objective range  [1e+00, 1e+00]
  Bounds range     [1e+00, 1e+04]
  RHS range        [1e+00, 1e+04]

Warning: Completing partial solution with 180 unfixed non-continuous variables out of 180
User MIP start did not produce a new incumbent solution

Presolve removed 90 rows and 0 columns
Presolve time: 0.02s
Presolved: 3475 rows, 201 columns, 10517 nonzeros
Variable types: 21 continuous, 180 integer (180 binary)

Root relaxation: objective 3.500000e+01, 405 iterations, 0.02 seconds (0.03 work units)
Another try with MIP start

    Nodes    |    Current Node    |     Objective Bounds      |     Work
 Expl Unexpl |  Obj  Depth IntInf | Incumbent    BestBd   Gap | It/Node Time

     0     0   35.00000    0   16          -   35.00000      -     -    0s
     0     0   35.00000    0   16          -   35.00000      -     -    0s
     0     2   35.00000    0   16          -   35.00000      -     -    0s
*  439   506              27     113.0000000   35.00000  69.0%  51.3    0s
*  452   506              33     110.0000000   35.00000  68.2%  50.3    0s
*  458   506              36     104.0000000   35.00000  66.3%  49.7    0s
*  460   506              36      94.0000000   35.00000  62.8%  49.5    0s
*  572   657              35      79.0000000   35.00000  55.7%  48.3    0s
*  831   782              35      75.0000000   35.00000  53.3%  40.4    0s
*  939   782              34      71.0000000   35.00000  50.7%  39.1    0s
*  988   884              38      68.0000000   35.00000  48.5%  38.2    0s
* 1385   995              30      66.0000000   35.00000  47.0%  34.3    0s
* 1751  1077              25      56.0000000   35.00000  37.5%  32.9    0s
* 3371  1138              22      52.0000000   35.00000  32.7%  25.9    0s
* 5377  1522              29      50.0000000   35.00000  30.0%  23.9    0s

Explored 6197 nodes (152433 simplex iterations) in 1.09 seconds (1.46 work units)
Thread count was 18 (of 36 available processors)

Solution count 10: 50 52 56 ... 104

Optimal solution found (tolerance 1.00e-04)
Best objective 5.000000000000e+01, best bound 5.000000000000e+01, gap 0.0000%

Gurobi 11.0.0 (win64) logging started Thu May 16 09:00:11 2024

Set parameter LogFile to value "./Results/StripPacking-SequencePairRuns/Logs/RUsp-010-StripPacking-10.log"
Set parameter TimeLimit to value 10800
Set parameter Cuts to value 0
Set parameter Presolve to value 1
Set parameter Heuristics to value 0
Set parameter LPWarmStart to value 2
Gurobi Optimizer version 11.0.0 build v11.0.0rc2 (win64 - Windows 10.0 (19045.2))

CPU model: Intel(R) Core(TM) i9-10980XE CPU @ 3.00GHz, instruction set [SSE2|AVX|AVX2|AVX512]
Thread count: 18 physical cores, 36 logical processors, using up to 18 threads

Optimize a model with 2125 rows, 201 columns and 6140 nonzeros
Model fingerprint: 0xdfa99949
Variable types: 21 continuous, 180 integer (180 binary)
Coefficient statistics:
  Matrix range     [1e+00, 1e+04]
  Objective range  [1e+00, 1e+00]
  Bounds range     [1e+00, 1e+04]
  RHS range        [1e+00, 1e+04]

Warning: Completing partial solution with 180 unfixed non-continuous variables out of 180
User MIP start produced solution with objective 50 (0.00s)
Loaded user MIP start with objective 50

Presolve removed 365 rows and 22 columns
Presolve time: 0.01s
Presolved: 1760 rows, 179 columns, 5253 nonzeros
Variable types: 21 continuous, 158 integer (158 binary)

Root relaxation: objective 3.500000e+01, 277 iterations, 0.02 seconds (0.01 work units)

    Nodes    |    Current Node    |     Objective Bounds      |     Work
 Expl Unexpl |  Obj  Depth IntInf | Incumbent    BestBd   Gap | It/Node Time

     0     0   35.00000    0   10   50.00000   35.00000  30.0%     -    0s
     0     0   35.00000    0   10   50.00000   35.00000  30.0%     -    0s
     0     2   35.00000    0    9   50.00000   35.00000  30.0%     -    0s
*  279   448              28      49.0000000   35.00000  28.6%  15.9    0s
*  310   448              23      46.0000000   35.00000  23.9%  15.4    0s
*  430   448              15      42.0000000   35.00000  16.7%  14.1    0s
* 1283   722              28      41.0000000   35.00000  14.6%  12.1    0s
* 8380  1130              33      39.0000000   35.00000  10.3%  12.3    0s

Explored 8701 nodes (114641 simplex iterations) in 0.53 seconds (0.63 work units)
Thread count was 18 (of 36 available processors)

Solution count 6: 39 41 42 ... 50

Optimal solution found (tolerance 1.00e-04)
Best objective 3.900000000000e+01, best bound 3.900000000000e+01, gap 0.0000%

Gurobi 11.0.0 (win64) logging started Thu May 16 09:01:12 2024

Set parameter LogFile to value "./Results/StripPacking-SequencePairRuns/Logs/RUsp-010-StripPacking-10.log"
Set parameter TimeLimit to value 10800
Set parameter Cuts to value 0
Set parameter Presolve to value 1
Set parameter Heuristics to value 0
Set parameter LPWarmStart to value 2
Gurobi Optimizer version 11.0.0 build v11.0.0rc2 (win64 - Windows 10.0 (19045.2))

CPU model: Intel(R) Core(TM) i9-10980XE CPU @ 3.00GHz, instruction set [SSE2|AVX|AVX2|AVX512]
Thread count: 18 physical cores, 36 logical processors, using up to 18 threads

Optimize a model with 3565 rows, 201 columns and 10460 nonzeros
Model fingerprint: 0x724bc403
Variable types: 21 continuous, 180 integer (180 binary)
Coefficient statistics:
  Matrix range     [1e+00, 1e+04]
  Objective range  [1e+00, 1e+00]
  Bounds range     [1e+00, 1e+04]
  RHS range        [1e+00, 1e+04]

Warning: Completing partial solution with 180 unfixed non-continuous variables out of 180
User MIP start did not produce a new incumbent solution

Presolve removed 90 rows and 180 columns
Presolve time: 0.00s

Explored 0 nodes (0 simplex iterations) in 0.00 seconds (0.01 work units)
Thread count was 1 (of 36 available processors)

Solution count 0

Model is infeasible
Best objective -, best bound -, gap -

Gurobi 11.0.0 (win64) logging started Thu May 16 09:02:40 2024

Set parameter LogFile to value "./Results/StripPacking-SequencePairRuns/Logs/RUsp-010-StripPacking-10.log"
Set parameter TimeLimit to value 10800
Set parameter Cuts to value 0
Set parameter Presolve to value 1
Set parameter Heuristics to value 0
Set parameter LPWarmStart to value 2
Gurobi Optimizer version 11.0.0 build v11.0.0rc2 (win64 - Windows 10.0 (19045.2))

CPU model: Intel(R) Core(TM) i9-10980XE CPU @ 3.00GHz, instruction set [SSE2|AVX|AVX2|AVX512]
Thread count: 18 physical cores, 36 logical processors, using up to 18 threads

Optimize a model with 2125 rows, 201 columns and 6140 nonzeros
Model fingerprint: 0xce8ae1ee
Variable types: 21 continuous, 180 integer (180 binary)
Coefficient statistics:
  Matrix range     [1e+00, 1e+04]
  Objective range  [1e+00, 1e+00]
  Bounds range     [1e+00, 1e+04]
  RHS range        [1e+00, 1e+04]

Warning: Completing partial solution with 180 unfixed non-continuous variables out of 180
User MIP start did not produce a new incumbent solution

Presolve removed 90 rows and 0 columns
Presolve time: 0.02s
Presolved: 2035 rows, 201 columns, 6197 nonzeros
Variable types: 21 continuous, 180 integer (180 binary)

Root relaxation: objective 3.500000e+01, 593 iterations, 0.03 seconds (0.05 work units)
Another try with MIP start

    Nodes    |    Current Node    |     Objective Bounds      |     Work
 Expl Unexpl |  Obj  Depth IntInf | Incumbent    BestBd   Gap | It/Node Time

     0     0   35.00000    0   28          -   35.00000      -     -    0s
     0     0   35.00000    0   24          -   35.00000      -     -    0s
     0     2   35.00000    0   18          -   35.00000      -     -    0s
*  412   486              25     108.0000000   35.00000  67.6%  54.5    0s
*  413   486              25      95.0000000   35.00000  63.2%  54.4    0s
*  487   486              24      80.0000000   35.00000  56.3%  49.8    0s
*  489   486              25      77.0000000   35.00000  54.5%  49.6    0s
*  758   600              30      70.0000000   35.00000  50.0%  44.7    0s
* 1015   828              28      69.0000000   35.00000  49.3%  40.2    0s
* 1344   956              23      66.0000000   35.00000  47.0%  36.2    0s
* 1364   956              22      63.0000000   35.00000  44.4%  36.4    0s
* 1368   956              25      61.0000000   35.00000  42.6%  36.3    0s
* 2183  1113              25      57.0000000   35.00000  38.6%  32.6    0s
* 2553  1190              31      56.0000000   35.00000  37.5%  30.7    0s
* 3082  1294              30      53.0000000   35.00000  34.0%  28.5    0s
* 6090  1626              25      52.0000000   35.00000  32.7%  23.8    0s
* 6689  1309              25      50.0000000   35.00000  30.0%  24.3    0s

Explored 7021 nodes (171873 simplex iterations) in 0.87 seconds (1.12 work units)
Thread count was 18 (of 36 available processors)

Solution count 10: 50 52 53 ... 70

Optimal solution found (tolerance 1.00e-04)
Best objective 5.000000000000e+01, best bound 5.000000000000e+01, gap 0.0000%

Gurobi 11.0.0 (win64) logging started Thu May 16 09:03:01 2024

Set parameter LogFile to value "./Results/StripPacking-SequencePairRuns/Logs/RUsp-010-StripPacking-10.log"
Set parameter TimeLimit to value 10800
Set parameter Cuts to value 0
Set parameter Presolve to value 1
Set parameter Heuristics to value 0
Set parameter LPWarmStart to value 2
Gurobi Optimizer version 11.0.0 build v11.0.0rc2 (win64 - Windows 10.0 (19045.2))

CPU model: Intel(R) Core(TM) i9-10980XE CPU @ 3.00GHz, instruction set [SSE2|AVX|AVX2|AVX512]
Thread count: 18 physical cores, 36 logical processors, using up to 18 threads

Optimize a model with 925 rows, 201 columns and 2540 nonzeros
Model fingerprint: 0xbbe7341d
Variable types: 21 continuous, 180 integer (180 binary)
Coefficient statistics:
  Matrix range     [1e+00, 1e+04]
  Objective range  [1e+00, 1e+00]
  Bounds range     [1e+00, 1e+04]
  RHS range        [1e+00, 1e+04]

Warning: Completing partial solution with 180 unfixed non-continuous variables out of 180
User MIP start produced solution with objective 50 (0.00s)
Loaded user MIP start with objective 50

Presolve removed 185 rows and 30 columns
Presolve time: 0.00s
Presolved: 740 rows, 171 columns, 2247 nonzeros
Variable types: 21 continuous, 150 integer (150 binary)

Root relaxation: objective 3.500000e+01, 136 iterations, 0.00 seconds (0.00 work units)

    Nodes    |    Current Node    |     Objective Bounds      |     Work
 Expl Unexpl |  Obj  Depth IntInf | Incumbent    BestBd   Gap | It/Node Time

     0     0   35.00000    0    8   50.00000   35.00000  30.0%     -    0s
     0     0   35.00000    0    8   50.00000   35.00000  30.0%     -    0s
     0     2   35.00000    0    8   50.00000   35.00000  30.0%     -    0s
*  232   270              20      46.0000000   35.00000  23.9%  11.3    0s
*  819   473              24      45.0000000   35.00000  22.2%  11.6    0s
*  946   473              27      44.0000000   35.00000  20.5%  11.4    0s
* 1468   609              24      42.0000000   35.00000  16.7%  10.5    0s
* 3752   854              21      41.0000000   35.00000  14.6%   8.7    0s

Explored 11650 nodes (80121 simplex iterations) in 0.25 seconds (0.25 work units)
Thread count was 18 (of 36 available processors)

Solution count 6: 41 42 44 ... 50

Optimal solution found (tolerance 1.00e-04)
Best objective 4.100000000000e+01, best bound 4.100000000000e+01, gap 0.0000%

Gurobi 11.0.0 (win64) logging started Thu May 16 09:08:18 2024

Set parameter LogFile to value "./Results/StripPacking-SequencePairRuns/Logs/RUsp-010-StripPacking-10.log"
Set parameter TimeLimit to value 10800
Set parameter Cuts to value 0
Set parameter Presolve to value 1
Set parameter Heuristics to value 0
Set parameter LPWarmStart to value 2
Gurobi Optimizer version 11.0.0 build v11.0.0rc2 (win64 - Windows 10.0 (19045.2))

CPU model: Intel(R) Core(TM) i9-10980XE CPU @ 3.00GHz, instruction set [SSE2|AVX|AVX2|AVX512]
Thread count: 18 physical cores, 36 logical processors, using up to 18 threads

Optimize a model with 925 rows, 201 columns and 2540 nonzeros
Model fingerprint: 0xbbe7341d
Variable types: 21 continuous, 180 integer (180 binary)
Coefficient statistics:
  Matrix range     [1e+00, 1e+04]
  Objective range  [1e+00, 1e+00]
  Bounds range     [1e+00, 1e+04]
  RHS range        [1e+00, 1e+04]

Warning: Completing partial solution with 180 unfixed non-continuous variables out of 180
User MIP start produced solution with objective 50 (0.00s)
Loaded user MIP start with objective 50

Presolve removed 185 rows and 30 columns
Presolve time: 0.00s
Presolved: 740 rows, 171 columns, 2247 nonzeros
Variable types: 21 continuous, 150 integer (150 binary)

Root relaxation: objective 3.500000e+01, 136 iterations, 0.00 seconds (0.00 work units)

    Nodes    |    Current Node    |     Objective Bounds      |     Work
 Expl Unexpl |  Obj  Depth IntInf | Incumbent    BestBd   Gap | It/Node Time

     0     0   35.00000    0    8   50.00000   35.00000  30.0%     -    0s
     0     0   35.00000    0    8   50.00000   35.00000  30.0%     -    0s
     0     2   35.00000    0    8   50.00000   35.00000  30.0%     -    0s
*  232   270              20      46.0000000   35.00000  23.9%  11.3    0s
*  819   473              24      45.0000000   35.00000  22.2%  11.6    0s
*  946   473              27      44.0000000   35.00000  20.5%  11.4    0s
* 1468   609              24      42.0000000   35.00000  16.7%  10.5    0s
* 3752   854              21      41.0000000   35.00000  14.6%   8.7    0s

Explored 11650 nodes (80121 simplex iterations) in 0.28 seconds (0.25 work units)
Thread count was 18 (of 36 available processors)

Solution count 6: 41 42 44 ... 50

Optimal solution found (tolerance 1.00e-04)
Best objective 4.100000000000e+01, best bound 4.100000000000e+01, gap 0.0000%

Gurobi 11.0.0 (win64) logging started Thu May 16 09:12:38 2024

Set parameter LogFile to value "./Results/StripPacking-SequencePairRuns/Logs/RUsp-010-StripPacking-10.log"
Set parameter TimeLimit to value 10800
Set parameter Cuts to value 0
Set parameter Presolve to value 1
Set parameter Heuristics to value 0
Set parameter LPWarmStart to value 2
Gurobi Optimizer version 11.0.0 build v11.0.0rc2 (win64 - Windows 10.0 (19045.2))

CPU model: Intel(R) Core(TM) i9-10980XE CPU @ 3.00GHz, instruction set [SSE2|AVX|AVX2|AVX512]
Thread count: 18 physical cores, 36 logical processors, using up to 18 threads

Optimize a model with 1405 rows, 201 columns and 3980 nonzeros
Model fingerprint: 0x3cdb8056
Variable types: 21 continuous, 180 integer (180 binary)
Coefficient statistics:
  Matrix range     [1e+00, 1e+04]
  Objective range  [1e+00, 1e+00]
  Bounds range     [1e+00, 1e+04]
  RHS range        [1e+00, 1e+04]

Warning: Completing partial solution with 180 unfixed non-continuous variables out of 180
User MIP start did not produce a new incumbent solution

Presolve removed 90 rows and 0 columns
Presolve time: 0.02s
Presolved: 1315 rows, 201 columns, 4037 nonzeros
Variable types: 21 continuous, 180 integer (180 binary)

Root relaxation: objective 3.500000e+01, 315 iterations, 0.00 seconds (0.01 work units)
Another try with MIP start

    Nodes    |    Current Node    |     Objective Bounds      |     Work
 Expl Unexpl |  Obj  Depth IntInf | Incumbent    BestBd   Gap | It/Node Time

     0     0   35.00000    0    6          -   35.00000      -     -    0s
     0     0   35.00000    0    6          -   35.00000      -     -    0s
     0     2   35.00000    0    6          -   35.00000      -     -    0s
*  212   236              13      55.0000000   35.00000  36.4%  14.8    0s
*  507   431              25      53.0000000   35.00000  34.0%  14.2    0s
*  567   431              29      52.0000000   35.00000  32.7%  14.1    0s
*  843   521              37      51.0000000   35.00000  31.4%  13.4    0s
* 1640   863              27      50.0000000   35.00000  30.0%  13.5    0s
* 3307  1126              17      49.0000000   35.00000  28.6%  12.7    0s
* 3359  1126              25      48.0000000   35.00000  27.1%  12.6    0s
* 3930  1092              17      47.0000000   35.00000  25.5%  12.4    0s
* 8020  1449              19      45.0000000   35.00000  22.2%  12.2    0s
* 8106  1362              22      44.0000000   35.00000  20.5%  12.4    0s

Explored 8786 nodes (125956 simplex iterations) in 0.53 seconds (0.65 work units)
Thread count was 18 (of 36 available processors)

Solution count 10: 44 45 47 ... 55

Optimal solution found (tolerance 1.00e-04)
Best objective 4.400000000000e+01, best bound 4.400000000000e+01, gap 0.0000%

Gurobi 11.0.0 (win64) logging started Thu May 16 09:12:50 2024

Set parameter LogFile to value "./Results/StripPacking-SequencePairRuns/Logs/RUsp-010-StripPacking-10.log"
Set parameter TimeLimit to value 10800
Set parameter Cuts to value 0
Set parameter Presolve to value 1
Set parameter Heuristics to value 0
Set parameter LPWarmStart to value 2
Gurobi Optimizer version 11.0.0 build v11.0.0rc2 (win64 - Windows 10.0 (19045.2))

CPU model: Intel(R) Core(TM) i9-10980XE CPU @ 3.00GHz, instruction set [SSE2|AVX|AVX2|AVX512]
Thread count: 18 physical cores, 36 logical processors, using up to 18 threads

Optimize a model with 1405 rows, 201 columns and 3980 nonzeros
Model fingerprint: 0xd70b302f
Variable types: 21 continuous, 180 integer (180 binary)
Coefficient statistics:
  Matrix range     [1e+00, 1e+04]
  Objective range  [1e+00, 1e+00]
  Bounds range     [1e+00, 1e+04]
  RHS range        [1e+00, 1e+04]

Warning: Completing partial solution with 180 unfixed non-continuous variables out of 180
User MIP start produced solution with objective 50 (0.00s)
Loaded user MIP start with objective 50

Presolve removed 780 rows and 70 columns
Presolve time: 0.02s
Presolved: 625 rows, 131 columns, 1940 nonzeros
Variable types: 21 continuous, 110 integer (110 binary)

Root relaxation: objective 3.500000e+01, 120 iterations, 0.00 seconds (0.00 work units)

    Nodes    |    Current Node    |     Objective Bounds      |     Work
 Expl Unexpl |  Obj  Depth IntInf | Incumbent    BestBd   Gap | It/Node Time

     0     0   35.00000    0   10   50.00000   35.00000  30.0%     -    0s
     0     0   35.00000    0   10   50.00000   35.00000  30.0%     -    0s
     0     2   35.00000    0   10   50.00000   35.00000  30.0%     -    0s
*  468   336              26      46.0000000   35.00000  23.9%  16.1    0s

Explored 20268 nodes (228139 simplex iterations) in 0.52 seconds (0.59 work units)
Thread count was 18 (of 36 available processors)

Solution count 2: 46 50 

Optimal solution found (tolerance 1.00e-04)
Best objective 4.600000000000e+01, best bound 4.600000000000e+01, gap 0.0000%

Gurobi 11.0.0 (win64) logging started Thu May 16 09:13:06 2024

Set parameter LogFile to value "./Results/StripPacking-SequencePairRuns/Logs/RUsp-010-StripPacking-10.log"
Set parameter TimeLimit to value 10800
Set parameter Cuts to value 0
Set parameter Presolve to value 1
Set parameter Heuristics to value 0
Set parameter LPWarmStart to value 2
Gurobi Optimizer version 11.0.0 build v11.0.0rc2 (win64 - Windows 10.0 (19045.2))

CPU model: Intel(R) Core(TM) i9-10980XE CPU @ 3.00GHz, instruction set [SSE2|AVX|AVX2|AVX512]
Thread count: 18 physical cores, 36 logical processors, using up to 18 threads

Optimize a model with 805 rows, 201 columns and 2180 nonzeros
Model fingerprint: 0xd355a54c
Variable types: 21 continuous, 180 integer (180 binary)
Coefficient statistics:
  Matrix range     [1e+00, 1e+04]
  Objective range  [1e+00, 1e+00]
  Bounds range     [1e+00, 1e+04]
  RHS range        [1e+00, 1e+04]

Warning: Completing partial solution with 180 unfixed non-continuous variables out of 180
User MIP start produced solution with objective 50 (0.00s)
Loaded user MIP start with objective 50

Presolve removed 185 rows and 30 columns
Presolve time: 0.02s
Presolved: 620 rows, 171 columns, 1887 nonzeros
Variable types: 21 continuous, 150 integer (150 binary)

Root relaxation: objective 3.500000e+01, 139 iterations, 0.00 seconds (0.00 work units)

    Nodes    |    Current Node    |     Objective Bounds      |     Work
 Expl Unexpl |  Obj  Depth IntInf | Incumbent    BestBd   Gap | It/Node Time

     0     0   35.00000    0   10   50.00000   35.00000  30.0%     -    0s
     0     0   35.00000    0    6   50.00000   35.00000  30.0%     -    0s
     0     2   35.00000    0    6   50.00000   35.00000  30.0%     -    0s
*  142   154              11      46.0000000   35.00000  23.9%   8.8    0s
*  337   256              20      41.0000000   35.00000  14.6%   8.9    0s

Explored 7799 nodes (47377 simplex iterations) in 0.19 seconds (0.15 work units)
Thread count was 18 (of 36 available processors)

Solution count 3: 41 46 50 

Optimal solution found (tolerance 1.00e-04)
Best objective 4.100000000000e+01, best bound 4.100000000000e+01, gap 0.0000%

Gurobi 11.0.0 (win64) logging started Thu May 16 09:41:41 2024

Set parameter LogFile to value "./Results/StripPacking-SequencePairRuns/Logs/RUsp-010-StripPacking-10.log"
Set parameter TimeLimit to value 10800
Set parameter Cuts to value 0
Set parameter Presolve to value 1
Set parameter Heuristics to value 0
Set parameter LPWarmStart to value 2
Gurobi Optimizer version 11.0.0 build v11.0.0rc2 (win64 - Windows 10.0 (19045.2))

CPU model: Intel(R) Core(TM) i9-10980XE CPU @ 3.00GHz, instruction set [SSE2|AVX|AVX2|AVX512]
Thread count: 18 physical cores, 36 logical processors, using up to 18 threads

Optimize a model with 805 rows, 201 columns and 2180 nonzeros
Model fingerprint: 0xd355a54c
Variable types: 21 continuous, 180 integer (180 binary)
Coefficient statistics:
  Matrix range     [1e+00, 1e+04]
  Objective range  [1e+00, 1e+00]
  Bounds range     [1e+00, 1e+04]
  RHS range        [1e+00, 1e+04]

Warning: Completing partial solution with 180 unfixed non-continuous variables out of 180
User MIP start produced solution with objective 50 (0.00s)
Loaded user MIP start with objective 50

Presolve removed 185 rows and 30 columns
Presolve time: 0.00s
Presolved: 620 rows, 171 columns, 1887 nonzeros
Variable types: 21 continuous, 150 integer (150 binary)

Root relaxation: objective 3.500000e+01, 139 iterations, 0.00 seconds (0.00 work units)

    Nodes    |    Current Node    |     Objective Bounds      |     Work
 Expl Unexpl |  Obj  Depth IntInf | Incumbent    BestBd   Gap | It/Node Time

     0     0   35.00000    0   10   50.00000   35.00000  30.0%     -    0s
     0     0   35.00000    0    6   50.00000   35.00000  30.0%     -    0s
     0     2   35.00000    0    6   50.00000   35.00000  30.0%     -    0s
*  142   154              11      46.0000000   35.00000  23.9%   8.8    0s
*  337   256              20      41.0000000   35.00000  14.6%   8.9    0s

Explored 7799 nodes (47377 simplex iterations) in 0.18 seconds (0.15 work units)
Thread count was 18 (of 36 available processors)

Solution count 3: 41 46 50 

Optimal solution found (tolerance 1.00e-04)
Best objective 4.100000000000e+01, best bound 4.100000000000e+01, gap 0.0000%

Gurobi 11.0.0 (win64) logging started Thu May 16 09:54:09 2024

Set parameter LogFile to value "./Results/StripPacking-SequencePairRuns/Logs/RUsp-010-StripPacking-10.log"
Set parameter TimeLimit to value 10800
Set parameter Cuts to value 0
Set parameter Presolve to value 1
Set parameter Heuristics to value 0
Set parameter LPWarmStart to value 2
Gurobi Optimizer version 11.0.0 build v11.0.0rc2 (win64 - Windows 10.0 (19045.2))

CPU model: Intel(R) Core(TM) i9-10980XE CPU @ 3.00GHz, instruction set [SSE2|AVX|AVX2|AVX512]
Thread count: 18 physical cores, 36 logical processors, using up to 18 threads

Optimize a model with 2125 rows, 201 columns and 6140 nonzeros
Model fingerprint: 0xdfa99949
Variable types: 21 continuous, 180 integer (180 binary)
Coefficient statistics:
  Matrix range     [1e+00, 1e+04]
  Objective range  [1e+00, 1e+00]
  Bounds range     [1e+00, 1e+04]
  RHS range        [1e+00, 1e+04]

Warning: Completing partial solution with 180 unfixed non-continuous variables out of 180
User MIP start produced solution with objective 50 (0.00s)
Loaded user MIP start with objective 50

Presolve removed 365 rows and 22 columns
Presolve time: 0.01s
Presolved: 1760 rows, 179 columns, 5253 nonzeros
Variable types: 21 continuous, 158 integer (158 binary)

Root relaxation: objective 3.500000e+01, 277 iterations, 0.02 seconds (0.01 work units)

    Nodes    |    Current Node    |     Objective Bounds      |     Work
 Expl Unexpl |  Obj  Depth IntInf | Incumbent    BestBd   Gap | It/Node Time

     0     0   35.00000    0   10   50.00000   35.00000  30.0%     -    0s
     0     0   35.00000    0   10   50.00000   35.00000  30.0%     -    0s
     0     2   35.00000    0    9   50.00000   35.00000  30.0%     -    0s
*  279   448              28      49.0000000   35.00000  28.6%  15.9    0s
*  310   448              23      46.0000000   35.00000  23.9%  15.4    0s
*  430   448              15      42.0000000   35.00000  16.7%  14.1    0s
* 1283   722              28      41.0000000   35.00000  14.6%  12.1    0s
* 8380  1130              33      39.0000000   35.00000  10.3%  12.3    0s

Explored 8701 nodes (114641 simplex iterations) in 0.51 seconds (0.63 work units)
Thread count was 18 (of 36 available processors)

Solution count 6: 39 41 42 ... 50

Optimal solution found (tolerance 1.00e-04)
Best objective 3.900000000000e+01, best bound 3.900000000000e+01, gap 0.0000%

Gurobi 11.0.0 (win64) logging started Fri May 17 19:13:35 2024

Set parameter LogFile to value "./Results/StripPacking-SequencePairRuns/Logs/RUsp-010-StripPacking-10.log"
Set parameter TimeLimit to value 10800
Set parameter Cuts to value 0
Set parameter Presolve to value 1
Set parameter Heuristics to value 0
Set parameter LPWarmStart to value 2
Gurobi Optimizer version 11.0.0 build v11.0.0rc2 (win64 - Windows 10.0 (19045.2))

CPU model: Intel(R) Core(TM) i9-10980XE CPU @ 3.00GHz, instruction set [SSE2|AVX|AVX2|AVX512]
Thread count: 18 physical cores, 36 logical processors, using up to 18 threads

Optimize a model with 2125 rows, 201 columns and 6140 nonzeros
Model fingerprint: 0xdfa99949
Variable types: 21 continuous, 180 integer (180 binary)
Coefficient statistics:
  Matrix range     [1e+00, 1e+04]
  Objective range  [1e+00, 1e+00]
  Bounds range     [1e+00, 1e+04]
  RHS range        [1e+00, 1e+04]

Warning: Completing partial solution with 180 unfixed non-continuous variables out of 180
User MIP start produced solution with objective 50 (0.00s)
Loaded user MIP start with objective 50

Presolve removed 365 rows and 22 columns
Presolve time: 0.02s
Presolved: 1760 rows, 179 columns, 5253 nonzeros
Variable types: 21 continuous, 158 integer (158 binary)

Root relaxation: objective 3.500000e+01, 277 iterations, 0.01 seconds (0.01 work units)

    Nodes    |    Current Node    |     Objective Bounds      |     Work
 Expl Unexpl |  Obj  Depth IntInf | Incumbent    BestBd   Gap | It/Node Time

     0     0   35.00000    0   10   50.00000   35.00000  30.0%     -    0s
     0     0   35.00000    0   10   50.00000   35.00000  30.0%     -    0s
     0     2   35.00000    0    9   50.00000   35.00000  30.0%     -    0s
*  279   448              28      49.0000000   35.00000  28.6%  15.9    0s
*  310   448              23      46.0000000   35.00000  23.9%  15.4    0s
*  430   448              15      42.0000000   35.00000  16.7%  14.1    0s
* 1283   722              28      41.0000000   35.00000  14.6%  12.1    0s
* 8380  1130              33      39.0000000   35.00000  10.3%  12.3    0s

Explored 8701 nodes (114641 simplex iterations) in 0.53 seconds (0.63 work units)
Thread count was 18 (of 36 available processors)

Solution count 6: 39 41 42 ... 50

Optimal solution found (tolerance 1.00e-04)
Best objective 3.900000000000e+01, best bound 3.900000000000e+01, gap 0.0000%
